r = [
0,16,6,32,17,20,33,19,4,21,12,34,9,28,20,2,13,17,14,35,4,33,8,30,7,1,0
];
p = [
0,6,14,11,25,26,4,23,7,8,7,14,6,27,12,9,26,1,1,19,18,15,28,10,16,21,0
];
e = [
0,1,12,1,5,13,15,8,15,2,11,6,11,5,8,1,5,3,7,15,2,9,11,7,14,1,0
];
d = [
0,324,307,337,350,341,361,339,323,355,320,341,328,346,336,336,326,320,327,363,326,355,313,342,309,314,365
];
d_bar = [
0,325,308,338,353,344,362,341,324,356,321,342,329,349,337,337,329,321,328,365,328,357,316,343,311,316,365
];
w = [
0,1,12,1,1.666666667,4.333333333,15,4,15,2,11,6,11,1.666666667,8,1,1.666666667,3,7,7.5,1,4.5,3.666666667,7,7,0.5,0
];
